; Start decls (5)
(declare-fun x_ackermann!0 () (_ BitVec 64))
(declare-fun x_ackermann!1 () (_ BitVec 64))
(declare-fun x_ackermann!2 () (_ BitVec 64))
(declare-fun x_ackermann!3 () (_ BitVec 64))
(declare-fun x_ackermann!4 () (_ BitVec 64))
; End decls
; Start constraints (6)
(assert (not (fp.gt ((_ to_fp 11 53) x_ackermann!0) ((_ to_fp 11 53) x_ackermann!1))))
(assert (fp.gt ((_ to_fp 11 53) x_ackermann!2) ((_ to_fp 11 53) x_ackermann!1)))
(assert (or (fp.isNaN ((_ to_fp 11 53) x_ackermann!3))
    (fp.isNaN ((_ to_fp 11 53) x_ackermann!2))
    (fp.lt ((_ to_fp 11 53) x_ackermann!3) ((_ to_fp 11 53) x_ackermann!2))))
(assert (not (fp.gt ((_ to_fp 11 53) x_ackermann!3) ((_ to_fp 11 53) x_ackermann!1))))
(assert (fp.gt ((_ to_fp 11 53) x_ackermann!3) ((_ to_fp 11 53) x_ackermann!0)))
(assert (not (or (fp.isNaN ((_ to_fp 11 53) x_ackermann!4))
         (fp.isNaN ((_ to_fp 11 53) x_ackermann!1))
         (fp.lt ((_ to_fp 11 53) x_ackermann!4) ((_ to_fp 11 53) x_ackermann!1)))))
; End constraints
(check-sat)
(exit)
